Set parameter TokenServer to value "hpc-licenses.hpcc.usc.edu"
Set parameter TimeLimit to value 3600
Gurobi Optimizer version 9.5.1 build v9.5.1rc2 (linux64)
Thread count: 20 physical cores, 20 logical processors, using up to 20 threads
Optimize a model with 14015 rows, 10581 columns and 64598 nonzeros
Model fingerprint: 0x15b3c40b
Variable types: 10514 continuous, 67 integer (67 binary)
Coefficient statistics:
  Matrix range     [1e+00, 1e+00]
  Objective range  [3e-03, 1e+00]
  Bounds range     [1e+00, 1e+00]
  RHS range        [1e+00, 1e+02]
Presolve removed 3086 rows and 3065 columns
Presolve time: 0.29s
Presolved: 10929 rows, 7516 columns, 59737 nonzeros
Variable types: 7456 continuous, 60 integer (60 binary)
Found heuristic solution: objective 264.5582338

Root relaxation: objective 2.700856e+02, 3686 iterations, 0.28 seconds (0.37 work units)

    Nodes    |    Current Node    |     Objective Bounds      |     Work
 Expl Unexpl |  Obj  Depth IntInf | Incumbent    BestBd   Gap | It/Node Time

     0     0  270.08555    0    7  264.55823  270.08555  2.09%     -    0s
     0     0  270.08555    0    7  264.55823  270.08555  2.09%     -    0s
     0     0  270.08555    0    8  264.55823  270.08555  2.09%     -    1s
     0     0  270.08555    0    9  264.55823  270.08555  2.09%     -    1s
     0     0  270.08555    0    9  264.55823  270.08555  2.09%     -    1s
     0     0  270.08555    0    8  264.55823  270.08555  2.09%     -    1s
     0     0  270.08555    0    9  264.55823  270.08555  2.09%     -    1s
     0     0  270.08555    0    9  264.55823  270.08555  2.09%     -    1s
     0     2  270.08555    0    9  264.55823  270.08555  2.09%     -    2s
*   38    22               5     267.5334301  270.01823  0.93%   540    4s
    39    29  270.01823    6    7  267.53343  270.01823  0.93%   528    5s
H   49    29                     268.0766628  270.01823  0.72%   474    5s
   143    25  268.15575   10    5  268.07666  269.95334  0.70%   328   10s
   380    40  268.94333   21    4  268.07666  269.56038  0.55%   266   15s
*  491    36              25     268.1756590  269.56038  0.52%   246   16s
H  556    16                     268.4134863  268.92694  0.19%   239   17s

Cutting planes:
  Gomory: 2
  MIR: 1
  Flow cover: 1
  RLT: 11

Explored 600 nodes (143111 simplex iterations) in 18.50 seconds (5.21 work units)
Thread count was 20 (of 20 available processors)

Solution count 5: 268.413 268.176 268.077 ... 264.558

Optimal solution found (tolerance 1.00e-04)
Best objective 2.684134862683e+02, best bound 2.684134862683e+02, gap 0.0000%



#########node  1
V2.5
#########node  2
V1.9
#########node  3
V1.7
#########node  4
0.08695652173913043,0.9130434782608696
#########node  5
1.0,0.0
#########node  6
0.0,1.0
#########node  7
1.0,0.0


Total Solving Time 19.437719106674194
obj value 268.4134862682654
Policy Regret train (Sum) 12.604119272852353
Best Treatment Found train (%) 49.4
treatment classification acc train (%) 65.60000000000001
Policy Regret test (Sum) 54.133055780938804
Best Treatment Found test (%) 76.09
treatment classification acc test (%) 60.85
Set parameter TokenServer to value "hpc-licenses.hpcc.usc.edu"
Set parameter TimeLimit to value 3600
Gurobi Optimizer version 9.5.1 build v9.5.1rc2 (linux64)
Thread count: 20 physical cores, 20 logical processors, using up to 20 threads
Optimize a model with 14015 rows, 10581 columns and 64598 nonzeros
Model fingerprint: 0x15b3c40b
Variable types: 10514 continuous, 67 integer (67 binary)
Coefficient statistics:
  Matrix range     [1e+00, 1e+00]
  Objective range  [3e-03, 1e+00]
  Bounds range     [1e+00, 1e+00]
  RHS range        [1e+00, 1e+02]
Presolve removed 3086 rows and 3065 columns
Presolve time: 0.29s
Presolved: 10929 rows, 7516 columns, 59737 nonzeros
Variable types: 7456 continuous, 60 integer (60 binary)
Found heuristic solution: objective 264.5582338

Root relaxation: objective 2.700856e+02, 3686 iterations, 0.27 seconds (0.37 work units)

    Nodes    |    Current Node    |     Objective Bounds      |     Work
 Expl Unexpl |  Obj  Depth IntInf | Incumbent    BestBd   Gap | It/Node Time

     0     0  270.08555    0    7  264.55823  270.08555  2.09%     -    0s
     0     0  270.08555    0    7  264.55823  270.08555  2.09%     -    0s
     0     0  270.08555    0    8  264.55823  270.08555  2.09%     -    1s
     0     0  270.08555    0    9  264.55823  270.08555  2.09%     -    1s
     0     0  270.08555    0    9  264.55823  270.08555  2.09%     -    1s
     0     0  270.08555    0    8  264.55823  270.08555  2.09%     -    1s
     0     0  270.08555    0    9  264.55823  270.08555  2.09%     -    1s
     0     0  270.08555    0    9  264.55823  270.08555  2.09%     -    1s
     0     2  270.08555    0    9  264.55823  270.08555  2.09%     -    2s
*   38    22               5     267.5334301  270.01823  0.93%   540    4s
    39    29  270.01823    6    7  267.53343  270.01823  0.93%   528    5s
H   49    29                     268.0766628  270.01823  0.72%   474    5s
   143    25  268.15575   10    5  268.07666  269.95334  0.70%   328   10s
   478    36  268.09844   24    2  268.07666  269.56038  0.55%   246   15s
*  491    36              25     268.1756590  269.56038  0.52%   246   15s
H  556    16                     268.4134863  268.92694  0.19%   239   16s

Cutting planes:
  Gomory: 2
  MIR: 1
  Flow cover: 1
  RLT: 11

Explored 600 nodes (143111 simplex iterations) in 17.43 seconds (5.21 work units)
Thread count was 20 (of 20 available processors)

Solution count 5: 268.413 268.176 268.077 ... 264.558

Optimal solution found (tolerance 1.00e-04)
Best objective 2.684134862683e+02, best bound 2.684134862683e+02, gap 0.0000%



#########node  1
V2.5
#########node  2
V1.9
#########node  3
V1.7
#########node  4
0.08695652173913043,0.9130434782608696
#########node  5
1.0,0.0
#########node  6
0.0,1.0
#########node  7
1.0,0.0


Total Solving Time 18.341619968414307
obj value 268.4134862682654
Policy Regret train (Sum) 12.604119272852353
Best Treatment Found train (%) 49.4
treatment classification acc train (%) 65.60000000000001
Policy Regret test (Sum) 54.133055780938804
Best Treatment Found test (%) 76.09
treatment classification acc test (%) 60.85
